experiment/data/lkh-res/Vrp-Set-A-n63/Vrp-Set-A-n63-lkh/1.lkh1.vrp
NAME : 1
COMMENT : CVRP Instance
TYPE : CVRP
DIMENSION : 63
EDGE_WEIGHT_TYPE : EUC_2D
CAPACITY : 100
NODE_COORD_SECTION
1	9100	9300
2	700	500
3	2700	9100
4	2100	4700
5	3300	1100
6	1900	9900
7	5900	2500
8	6900	7900
9	1100	7300
10	2100	3500
11	5900	4500
12	9900	8100
13	7100	4700
14	5300	8300
15	8700	100
16	7900	6700
17	5900	6500
18	6700	2100
19	2700	100
20	8100	9300
21	5900	8900
22	9500	2300
23	7300	2500
24	4100	2500
25	300	6500
26	5900	8300
27	8300	9700
28	500	8300
29	7100	3500
30	3700	9700
31	2900	9300
32	1900	2100
33	8300	1300
34	9700	6700
35	3100	8300
36	6500	1700
37	1900	6300
38	5900	2300
39	1700	2500
40	4500	2700
41	8900	700
42	1900	4100
43	2300	3900
44	2300	2100
45	8300	6100
46	1100	9300
47	1700	1100
48	3500	1100
49	2100	5900
50	2100	6900
51	7100	1300
52	6300	1300
53	4900	2100
54	8300	3100
55	4100	9700
56	8500	1500
57	7700	7300
58	5700	100
59	8300	1100
60	100	7500
61	4500	7100
62	4100	5500
63	4500	1300
DEMAND_SECTION
1	0
2	4
3	18
4	22
5	14
6	5
7	9
8	7
9	20
10	19
11	7
12	18
13	20
14	2
15	11
16	10
17	5
18	21
19	20
20	1
21	15
22	15
23	14
24	19
25	22
26	21
27	22
28	6
29	24
30	14
31	14
32	2
33	15
34	21
35	15
36	6
37	23
38	14
39	26
40	15
41	15
42	23
43	7
44	22
45	26
46	20
47	3
48	2
49	15
50	2
51	21
52	12
53	4
54	10
55	23
56	4
57	24
58	17
59	2
60	20
61	18
62	19
63	8
DEPOT_SECTION
1
-1
EOF
