experiment/data/lkh-res/Vrp-Set-A-n63/Vrp-Set-A-n63-lkh/1.lkh1.tour
NAME : 1.163200.tour
COMMENT : Length = 163200
COMMENT : Found by LKH-3 [Keld Helsgaun] Tue Apr  9 00:48:32 2024
TYPE : TOUR
DIMENSION : 71
TOUR_SECTION
1
14
50
9
25
60
28
46
6
20
64
13
29
18
38
7
11
70
21
35
3
31
30
55
68
54
51
15
41
59
33
56
22
71
27
26
37
49
61
69
17
40
24
63
58
52
36
23
65
12
34
45
16
57
66
62
43
10
42
4
8
67
39
32
44
47
2
19
5
48
53
-1
EOF
